sat
(:added-eqs                       1503
 :arith-eq-adapter                131
 :arith-bound-propagations-lp     27
 :arith-conflicts                 205
 :arith-diseq                     76
 :arith-fixed-eqs                 42
 :arith-gcd-calls                 17
 :arith-grobner-calls             19
 :arith-grobner-conflicts         17
 :arith-horner-calls              1
 :arith-horner-cross-nested-forms 1760
 :arith-lower                     302
 :arith-make-feasible             312
 :arith-max-columns               1527
 :arith-max-rows                  638
 :arith-nla-add-bounds            7
 :arith-nla-lemmas                106
 :arith-nla-propagate-bounds      84
 :arith-nla-propagate-eq          1755
 :arith-nra-calls                 4
 :arith-offset-eqs                122
 :arith-patches                   17
 :arith-patches-success           17
 :arith-upper                     485
 :binary-propagations             467
 :conflicts                       26
 :decisions                       608
 :del-clause                      155
 :final-checks                    39
 :max-memory                      63.68
 :memory                          18.45
 :mk-bool-var                     1256
 :mk-clause                       315
 :mk-clause-binary                5554
 :nlsat-conflicts                 231
 :nlsat-propagations              15957
 :nlsat-stages                    14232
 :num-allocs                      112499010
 :num-checks                      1
 :propagations                    627
 :rlimit-count                    538624
 :sls-arith-steps                 7221
 :sls-ddfw-flips                  26646.00
 :sls-ddfw-reinits                2
 :sls-ddfw-shifts                 2887.00
 :sls-num-guided-search           23
 :sls-repair-down                 789
 :sls-repair-up                   1616
 :solve-eqs-elim-vars             130
 :solve-eqs-steps                 2209
 :time                            1.33
 :total-time                      1.34)
